3774
3774
3774
3774
3774
3774
3774
3774
3774
3774
3774
3774
3774
3774
3774
3774
3774
3774
3774
3774
3774
3774
3774
3774
3774
3774
3774
3774
3774
3774
3774
3774
3774
3774
3774
3774
3774
3774
3774
3774
3774
3774
3640
3640
3640
3640
3640
3640
3640
3640
3640
3640
3640
3640
3640
3640
3640
3640
3640
3640
3640
3640
3640
3640
3640
3640
3640
3640
3640
3640
3640
3640
3640
3640
3640
3640
3640
3640
3640
3640
3640
3640
3640
3640
3640
3640
3640
3640
3640
3640
3640
3640
3640
3640
3640
3640
3640
3640
3640
3640
3640
3640
3640
3640
3640
3640
3640
3640
3640
3640
3640
3640
3640
3640
3640
3640
3640
3640
3640
3640
3640
3640
3640
3640
3640
3640
3640
3640
3640
3640
3640
3640
3640
3640
3640
3640
3640
3640
3640
3640
3640
3640
3640
3640
3640
3640
3640
3640
3640
3640
3640
3640
3640
3640
3640
3640
3640
3640
3640
3640
3640
3640
3640
3640
3640
3640
3640
3640
3640
3640
3640
3640
3640
3640
3640
3640
3640
3640
3640
3640
3640
3640
3640
3640
3640
3640
3640
3640
3640
3640
3640
3640
3640
3640
3640
3640
3640
3640
3640
3640
3640
3640
3640
3640
3640
3640
3640
3640
3640
3640
3640
3640
3640
3640
3640
3640
3640
3640
3640
3640
3640
3640
3640
3640
3640
3640
3640
3640
3640
3640
3640
3640
3640
3640
3640
3640
3640
3640
3640
3640
3640
3640
3640
3640
3640
3640
3640
3640
3640
3640
3640
3640
3640
3640
3640
3640
3640
3640
3640
3640
3640
3640
3640
3640
3640
3640
3640
3640
3640
3640
3640
3640
3640
3640
3640
3640
3640
3640
3640
3640
3640
3640
3640
3640
3640
3640
3640
3640
3640
3640
3640
3640
3640
3640
3640
3640
3640
3640
3640
3640
3640
3579
3579
3579
3579
3579
3579
3579
3579
3579
3579
3579
3579
3579
3579
3579
3579
3579
3579
3579
3579
3579
3579
3579
3579
3579
3579
3579
3579
3579
3579
3579
3579
3579
3579
3579
3579
3579
3579
3579
3579
3579
3579
3579
3579
3579
3579
3579
3579
3579
3579
3579
3579
3579
3579
3579
3579
3579
3579
3579
3579
3579
3579
3579
3579
3579
3579
3579
3579
3579
3579
3579
3579
3579
3579
3579
3579
3579
3579
3579
3579
3579
3579
3579
3579
3579
3579
3579
3579
3579
3579
3579
3579
3579
3579
3579
3579
3579
3579
3579
3579
3579
3579
3579
3579
3579
3579
3579
3579
3579
3579
3579
3579
3579
3579
3579
3579
3579
3579
3579
3579
3579
3579
3579
3579
3579
3579
3579
3579
3579
3579
3579
3579
3579
3579
3579
3579
3579
3579
3579
3579
3579
3579
3579
3579
3579
3579
3579
3579
3579
3579
3579
3579
3579
3579
3579
3579
3579
3579
3579
3579
3579
3579
3579
3579
3579
3579
3579
3579
3579
3579
3579
3579
3579
3579
3579
3579
3579
3579
3579
3579
3579
3579
3579
3579
3579
3579
3579
3579
3579
3579
3579
3579
3579
3579
3579
3579
3579
3579
3579
3579
3579
3579
3579
3579
3579
3579
3579
3579
3579
3579
3579
3579
3579
3579
3579
3579
3579
3579
3579
3579
3579
3579
3579
3579
3579
3579
3579
3579
3579
3579
3579
3579
3579
3579
3579
3579
3579
3579
3579
3579
3579
3579
3579
3579
3579
3579
3579
3579
3579
3579
3579
3579
3579
3579
3579
3579
3579
3579
3579
3579
3579
3579
3579
3579
3579
3579
3579
3579
3579
3579
3579
3579
3579
3579
3579
3579
3579
3579
3579
3579
3579
3579
3579
3579
3579
3579
3579
3579
3579
3579
3579
3579
3579
3579
3579
3579
3579
3579
3579
3579
3579
3579
3579
3579
3579
3579
3579
3579
3579
3579
3579
3579
3579
3579
3579
3579
3579
3579
3579
3579
3579
3579
3579
3579
3579
3579
3579
3579
3579
3579
3579
3579
3579
3579
3579
3579
3579
3579
3579
3579
3579
3579
3579
3579
3579
3579
3579
3579
3579
3579
3579
3579
3579
3579
3579
3579
3579
3579
3579
3579
3579
3579
3579
3579
3579
3579
3579
3579
3579
3579
3579
3579
3579
3579
3579
3579
3579
3579
3579
3579
3579
3579
3579
3579
3579
3579
3579
3579
3579
3579
3579
3579
3579
3579
3579
3579
3579
3579
3579
3579
3579
3579
3579
3579
3579
3579
3579
3579
3579
3579
3579
3579
3579
3579
3579
3579
3579
3579
3579
3579
3579
3579
3579
3579
3579
3579
3579
3579
3579
3579
3579
3579
3579
3579
3579
3579
3579
3579
3579
3579
3579
3579
3579
3579
3579
3579
3579
3579
3579
3579
3579
3579
3579
3579
3579
3579
3579
3579
3579
3579
3579
3579
3579
3579
3579
3579
3579
3579
3579
3579
3579
3579
3579
3579
3579
3579
3579
3579
3579
3579
3579
3579
3579
3579
3579
3579
3579
3579
3579
3579
3579
3579
3579
3579
3579
3579
3579
3579
3579
3579
3579
3579
3579
3579
3579
3579
3579
3579
3579
3579
3579
3579
3579
3579
3579
3579
3579
3579
3579
3579
3579
3579
3579
3579
3579
3579
3579
3579
3579
3579
3579
3579
3579
3579
3579
3579
3579
3579
3579
3579
3579
3579
3579
3579
3579
3579
3579
3579
3579
3579
3579
3579
3579
3579
3579
3579
3579
3579
3579
3579
3579
3579
3579
3579
3579
3579
3579
3579
3579
3579
3579
3579
3579
3579
3579
3579
3579
3579
3579
3579
3579
3579
3579
3579
3579
3579
3579
3579
3579
3579
3579
3579
3579
3579
3579
3579
3579
3579
3579
3579
3579
3579
3579
3579
3579
3579
3579
3579
3579
3579
3579
3579
3579
3579
3579
3579
3579
3579
3579
3579
3579
3579
3579
3579
3579
3579
3579
3579
3579
3579
3579
3579
3579
3579
3579
3579
3579
3579
3579
3579
3579
3579
3579
3579
3579
3579
3579
3579
3579
3579
3579
3579
3579
3579
3579
3579
3579
3579
3579
3579
3579
3579
3579
3579
3579
3579
3579
3579
3579
3579
3579
3579
3579
3579
3579
3579
3579
3579
3579
3579
3579
3579
3579
3579
3579
3579
3579
3579
3579
3579
3579
3579
3579
3579
3579
3579
3579
3579
3579
3579
3579
3579
3579
3579
3579
3579
3579
3579
3579
3579
3579
3579
3579
3579
3579
3579
3579
3579
3579
3579
3579
3579
3579
3579
3579
3579
3579
3579
3579
3579
3579
3579
3579
3579
3579
3579
3579
3579
3579
3579
3579
3579
3579
3579
3579
3579
3579
3579
3579
3579
3579
3579
3579
3579
3579
3579
3579
3579
3579
3579
3579
3579
3579
3579
3579
3579
3579
3579
3579
3579
3579
3579
3579
3579
3579
3579
3579
3579
3579
3579
3579
3579
3579
3579
3579
3579
3579
3579
3579
3579
3579
3579
3579
3579
3579
3579
3579
3579
3579
3579
3579
3579
3579
3579
3579
3579
3579
3579
3579
3579
3579
3579
3579
3579
3579
3579
3579
3579
3579
3579
3579
3579
3579
3579
3579
3579
3579
3579
3579
3579
3579
3579
3579
3579
3579
3579
3579
3579
3579
3579
3579
3579
3579
3579
3579
3579
3579
3579
3579
3579
3579
3579
3579
3579
3579
3579
3579
3579
3579
3579
3579
3579
3579
3579
3579
3579
3579
3579
3579
3579
3579
3579
3579
3579
3579
3579
3579
3579
3579
3579
3579
3579
3579
3579
3579
3579
3579
3579
3579
3579
3579
3579
3579
3579
3579
3579
3579
3579
3579
3579
3579
3579
3579
3579
3579
3579
3579
3579
3579
3579
3579
3579
3579
3579
3579
3579
3579
3579
3579
3579
3579
3579
3579
3579
3579
3579
3579
3579
3579
3579
3579
3579
3579
3579
3579
3579
3579
3579
3579
3579
3579
3579
3579
3579
3579
3579
3579
3579
3579
3579
3579
3579
3579
3579
3579
3579
3579
3579
3579
3579
3579
3579
3579
3579
3579
3579
3579
3579
3579
3579
3579
3579
3579
3579
3579
3579
3579
3579
3579
3579
3579
3579
3579
3579
3579
3579
3579
3579
3579
3579
3579
3579
3579
3579
3579
3579
3579
3579
3579
3579
3579
3579
3579
3579
3579
3579
3579
3579
3579
3579
3579
3579
3579
3579
3579
3579
3579
3579
3579
3579
3579
3579
3579
3579
3579
3579
3579
3579
3579
3579
3579
3579
3579
3579
3579
3579
3579
3579
3579
3579
3579
3579
3579
3579
3579
3579
3579
3579
3579
3579
3579
3579
3579
3579
3579
3579
3579
3579
3579
3579
3579
3579
3579
3579
3579
3579
3579
3579
3579
3579
3579
3579
3579
3579
3579
3579
3579
3579
3579
3579
3579
3579
3579
3579
3579
3579
3579
3579
3579
3579
3579
3579
3579
3579
3579
3579
3579
3579
3579
3579
3579
3579
3579
3579
3579
3579
3579
3579
3579
3579
3579
3579
3579
3579
3579
3579
3579
3579
3579
3579
3579
3579
3579
3579
3579
3579
3579
3579
3579
3579
3579
3579
3579
3579
3579
3579
3579
3579
3579
3579
3579
3579
3579
3579
3579
3579
3579
3579
3579
3579
3579
3579
3579
3579
3579
3579
3579
3579
3579
3579
3579
3579
3579
3579
3579
3579
3579
3579
3579
3579
3579
3579
3579
3579
3579
3579
3579
3579
3579
3579
3579
3579
3579
3579
3579
3579
3579
3579
3579
3579
3579
3579
3579
3579
3579
3579
3579
3579
3579
3579
3579
3579
3579
3579
3579
3579
3579
3579
3579
3579
3579
3579
3579
3579
3579
3579
3579
3579
3579
3579
3579
3579
3579
3579
3579
3579
3579
3579
3579
3579
3579
3579
3579
3579
3579
3579
3579
3579
3579
3579
3579
3579
3579
3579
3579
3579
3579
3579
3579
3579
3579
3579
3579
3579
3579
3579
3579
3579
3579
3579
3579
3579
3579
3579
3579
3579
3579
3579
3579
3579
3579
3579
3579
3579
3579
3579
3579
3579
3579
3579
3579
3579
3579
3579
3579
3579
3579
3579
3579
3579
3579
3579
3579
3579
3579
3579
3579
3579
3579
3579
3579
3579
3579
3579
3579
3579
3579
3579
3579
3579
3579
3579
3579
3579
3579
3579
3579
3579
3579
3579
3579
3579
3579
3579
3579
3579
3579
3579
3579
3579
3579
3579
3579
3579
3579
3579
3579
3579
3579
3579
3579
3579
3579
3579
3579
3579
3579
3579
3579
3579
3579
3579
3579
3579
3579
3579
3579
3579
3579
3579
3579
3579
3579
3579
3579
3579
3579
3579
3579
3579
3579
3579
3579
3579
3579
3579
3579
3579
3579
3579
3579
3579
3579
3579
3579
3579
3579
3579
3579
3579
3579
3579
3579
3579
3579
3579
3579
3579
3579
3579
3579
3579
3579
3579
3579
3579
3579
3579
3579
3579
3579
3579
3579
3579
3579
3579
3579
3579
3579
3579
3579
3579
3579
3579
3579
3579
3579
3579
3579
3579
3579
3579
3579
3579
3579
3579
3579
3579
3579
3579
3579
3579
3579
3579
3579
3579
3579
3579
3579
3579
3579
3579
3579
3579
3579
3579
3579
3579
3579
3579
3579
3579
3579
3579
3579
3579
3579
3579
3579
3579
3579
3579
3579
3579
3579
3579
3579
3579
3579
3579
3579
3579
3579
3579
3579
3579
3579
3579
3579
3579
3579
3579
3579
3579
3579
3579
3579
3579
3579
3579
3579
3579
3579
3579
3579
3579
3579
3579
3579
3579
3579
3579
3579
3579
3579
3579
3579
3579
3579
3579
3579
3579
3579
3579
3579
3579
3579
3579
3579
3579
3579
3579
3579
3579
3579
3579
3579
3579
3579
3579
3579
3579
3579
3579
3579
3579
3579
3579
3579
3579
3579
3579
3579
3579
3579
3579
3579
3579
3579
3579
3579
3579
3579
3579
3579
3579
3579
3579
3579
3579
3579
3579
3579
3579
3579
3579
3579
3579
3579
3579
3579
3579
3579
3579
3579
3579
3579
3579
3579
3579
3579
3579
3579
3579
3579
3579
3579
3579
3579
3579
3579
3579
3579
3579
3579
3579
3579
3579
3579
3579
3579
3579
3579
3579
3579
3579
3579
3579
3579
3579
3579
3579
3579
3579
3579
3579
3579
3579
3579
3579
3579
3579
3579
3579
3579
3579
3579
3579
3579
3579
3579
3579
3579
3579
3579
3579
3579
3579
3579
3579
3579
3579
3579
3579
3579
3579
3579
3579
3579
3579
3579
3579
3579
3579
3579
3579
3579
3579
3579
3579
3579
3579
3579
3579
3579
3579
3579
3579
3579
3579
3579
3579
3579
3579
3579
3579
3579
3579
3579
3579
3579
3579
3579
3579
3579
3579
3579
3579
